[[25, 4, 6, 15, 5, 24, 48, 38, 37, 40, 39, 34, 35, 36, 49, 32, 43, 33, 10, 9, 8, 41, 19, 45, 3, 18, 22, 31, 17, 21], [7, 2, 42, 30, 23, 20, 50, 29, 16, 44, 46, 28, 27, 26, 47, 13, 14, 52, 11, 51, 12]]